NAME : local_2
TYPE : ATSP
DIMENSION : 24
EDGE_WEIGHT_TYPE : EXPLICIT
EDGE_WEIGHT_FORMAT : FULL_MATRIX
EDGE_WEIGHT_SECTION
0 826 513 10000000 548 635 354 447 964 210 829 10000000 10000000 10000000 10000000 10000000 10000000 10000000 10000000 10000000 10000000 10000000 10000000 10000000 
0 0 321 10000000 501 875 603 793 10000000 770 716 10000000 10000000 10000000 10000000 10000000 721 450 816 728 10000000 10000000 10000000 891 
0 321 0 10000000 280 737 374 597 10000000 496 706 10000000 10000000 10000000 10000000 10000000 968 634 963 726 10000000 10000000 10000000 926 
0 10000000 10000000 0 10000000 10000000 10000000 10000000 685 10000000 10000000 10000000 744 965 639 813 10000000 10000000 10000000 10000000 322 484 526 10000000 
0 501 280 10000000 0 950 582 793 10000000 632 914 843 10000000 10000000 10000000 10000000 1003 603 10000000 523 10000000 10000000 990 10000000 
0 875 737 10000000 950 0 402 195 10000000 444 413 10000000 10000000 10000000 10000000 10000000 10000000 10000000 906 10000000 10000000 10000000 10000000 601 
0 603 374 10000000 582 402 0 234 10000000 191 561 10000000 10000000 10000000 10000000 10000000 10000000 991 983 10000000 10000000 10000000 10000000 803 
0 793 597 10000000 793 195 234 0 10000000 249 501 10000000 10000000 10000000 10000000 10000000 10000000 10000000 983 10000000 10000000 10000000 10000000 723 
0 10000000 10000000 685 10000000 10000000 10000000 10000000 0 10000000 10000000 10000000 10000000 10000000 10000000 10000000 10000000 10000000 10000000 10000000 781 10000000 574 10000000 
0 770 496 10000000 632 444 191 249 10000000 0 684 10000000 10000000 10000000 10000000 10000000 10000000 10000000 10000000 10000000 10000000 10000000 10000000 917 
0 716 706 10000000 914 413 561 501 10000000 684 0 10000000 10000000 10000000 10000000 10000000 1186 10000000 495 10000000 10000000 10000000 10000000 243 
0 10000000 10000000 10000000 843 10000000 10000000 10000000 10000000 10000000 10000000 0 10000000 10000000 10000000 639 10000000 900 10000000 512 986 10000000 760 10000000 
0 10000000 10000000 744 10000000 10000000 10000000 10000000 10000000 10000000 10000000 10000000 0 267 764 10000000 1028 10000000 901 10000000 918 425 10000000 10000000 
0 10000000 10000000 965 10000000 10000000 10000000 10000000 10000000 10000000 10000000 10000000 267 0 10000000 10000000 939 10000000 740 10000000 10000000 591 10000000 870 
0 10000000 10000000 639 10000000 10000000 10000000 10000000 10000000 10000000 10000000 10000000 764 10000000 0 431 10000000 10000000 10000000 10000000 478 810 827 10000000 
0 10000000 10000000 813 10000000 10000000 10000000 10000000 10000000 10000000 10000000 639 10000000 10000000 431 0 10000000 10000000 10000000 10000000 583 10000000 704 10000000 
0 721 989 10000000 1009 10000000 10000000 10000000 10000000 10000000 1087 10000000 1037 939 10000000 10000000 0 536 721 753 10000000 10000000 10000000 1095 
0 450 634 10000000 603 10000000 991 10000000 10000000 10000000 10000000 900 10000000 10000000 10000000 10000000 536 0 10000000 425 10000000 10000000 10000000 10000000 
0 816 963 10000000 10000000 906 983 983 10000000 10000000 495 10000000 901 740 10000000 10000000 721 10000000 0 10000000 10000000 10000000 10000000 376 
0 728 726 10000000 523 10000000 10000000 10000000 10000000 10000000 10000000 512 10000000 10000000 10000000 10000000 753 425 10000000 0 10000000 10000000 10000000 10000000 
0 10000000 10000000 322 10000000 10000000 10000000 10000000 781 10000000 10000000 986 918 10000000 478 583 10000000 10000000 10000000 10000000 0 750 442 10000000 
0 10000000 10000000 484 10000000 10000000 10000000 10000000 10000000 10000000 10000000 10000000 425 591 810 10000000 10000000 10000000 10000000 10000000 750 0 981 10000000 
0 10000000 10000000 526 1004 10000000 10000000 10000000 574 10000000 10000000 760 10000000 10000000 827 704 10000000 10000000 10000000 10000000 442 1057 0 10000000 
0 891 926 10000000 10000000 601 803 723 10000000 917 243 10000000 10000000 870 10000000 10000000 1156 10000000 376 10000000 10000000 10000000 10000000 0 
EOF